
******************************************************************************
This program contains Ipopt, a library for large-scale nonlinear optimization.
 Ipopt is released as open source code under the Eclipse Public License (EPL).
         For more information visit http://projects.coin-or.org/Ipopt

This version of Ipopt was compiled from source code available at
    https://github.com/IDAES/Ipopt as part of the Institute for the Design of
    Advanced Energy Systems Process Systems Engineering Framework (IDAES PSE
    Framework) Copyright (c) 2018-2019. See https://github.com/IDAES/idaes-pse.

This version of Ipopt was compiled using HSL, a collection of Fortran codes
    for large-scale scientific computation.  All technical papers, sales and
    publicity material resulting from use of the HSL codes within IPOPT must
    contain the following acknowledgement:
        HSL, a collection of Fortran codes for large-scale scientific
        computation. See http://www.hsl.rl.ac.uk.
******************************************************************************

This is Ipopt version 3.13.2, running with linear solver ma27.

Number of nonzeros in equality constraint Jacobian...:      928
Number of nonzeros in inequality constraint Jacobian.:        0
Number of nonzeros in Lagrangian Hessian.............:      806

Total number of variables............................:      403
                     variables with only lower bounds:      124
                variables with lower and upper bounds:      217
                     variables with only upper bounds:        0
Total number of equality constraints.................:      402
Total number of inequality constraints...............:        0
        inequality constraints with only lower bounds:        0
   inequality constraints with lower and upper bounds:        0
        inequality constraints with only upper bounds:        0

iter    objective    inf_pr   inf_du lg(mu)  ||d||  lg(rg) alpha_du alpha_pr  ls
   0  0.0000000e+00 7.86e-01 2.84e-14  -1.0 0.00e+00    -  0.00e+00 0.00e+00   0
   1  7.2857572e-01 2.45e-01 6.13e+02  -1.0 7.87e+04    -  1.42e-01 9.90e-01h  1
   2  7.2743386e-01 2.75e-02 1.94e+02  -1.0 4.38e+03    -  7.96e-01 9.90e-01h  1
   3  7.2864342e-01 6.37e-04 2.59e+03  -1.0 6.12e+02    -  9.64e-01 9.90e-01h  1
   4  7.2839639e-01 6.63e-06 5.97e+02  -1.0 7.29e+01    -  9.90e-01 9.90e-01h  1
   5  7.1811727e-01 2.62e-07 2.97e+06  -1.0 4.55e+03    -  9.87e-01 9.90e-01H  1
   6  7.1809357e-01 2.61e-07 9.86e+10  -1.0 6.75e+03    -  9.90e-01 3.87e-03h  9
   7  7.1807009e-01 2.61e-07 1.98e+11  -1.0 6.81e+03    -  1.00e+00 3.87e-03h  9
   8  7.1804711e-01 2.61e-07 2.98e+11  -1.0 6.79e+03    -  1.00e+00 3.87e-03h  9
   9  7.1802464e-01 2.61e-07 3.97e+11  -1.0 6.76e+03    -  1.00e+00 3.87e-03h  9
iter    objective    inf_pr   inf_du lg(mu)  ||d||  lg(rg) alpha_du alpha_pr  ls
  10  7.1800266e-01 2.60e-07 4.97e+11  -1.0 6.73e+03    -  1.00e+00 3.87e-03h  9
  11  7.1798119e-01 2.60e-07 5.97e+11  -1.0 6.71e+03    -  1.00e+00 3.87e-03h  9
  12  7.1796020e-01 2.59e-07 6.96e+11  -1.0 6.68e+03    -  1.00e+00 3.87e-03h  9
  13  7.1793969e-01 2.59e-07 7.96e+11  -1.0 6.66e+03    -  1.00e+00 3.87e-03h  9
  14  7.1791967e-01 2.59e-07 8.96e+11  -1.0 6.63e+03    -  1.00e+00 3.87e-03h  9
  15  7.1790012e-01 2.58e-07 9.95e+11  -1.0 6.60e+03    -  1.00e+00 3.87e-03h  9
  16  7.2585617e-01 4.18e-05 1.10e+10  -1.0 6.58e+03    -  1.00e+00 9.90e-01w  1
  17  7.2605919e-01 4.23e-07 1.04e+11  -1.0 6.76e+01    -  1.00e+00 9.90e-01w  1
In iteration 17, 31 Slacks too small, adjusting variable bounds
  18  7.2606124e-01 4.23e-09 1.04e+13  -1.0 6.77e-01    -  1.00e+00 9.90e-01h  1
  19  7.2606126e-01 2.56e-11 1.00e-06  -1.0 6.77e-03    -  1.00e+00 1.00e+00h  1
iter    objective    inf_pr   inf_du lg(mu)  ||d||  lg(rg) alpha_du alpha_pr  ls
  20  7.1742762e-01 8.91e-10 4.93e+09  -9.0 5.30e+03    -  1.00e+00 1.00e+00F  1
  21  7.1742737e-01 8.27e-10 4.30e-07  -9.0 2.89e+01    -  1.00e+00 1.00e+00h  1

Number of Iterations....: 21

                                   (scaled)                 (unscaled)
Objective...............:   7.1742736674045937e-01    7.1742736674045937e-01
Dual infeasibility......:   4.2976171243935823e-07    4.2976171243935823e-07
Constraint violation....:   8.2731999029306280e-10    8.2731999029306280e-10
Complementarity.........:   3.0178345805919339e-08    3.0178345805919339e-08
Overall NLP error.......:   6.3549067352872302e-09    4.2976171243935823e-07


Number of objective function evaluations             = 135
Number of objective gradient evaluations             = 22
Number of equality constraint evaluations            = 135
Number of inequality constraint evaluations          = 0
Number of equality constraint Jacobian evaluations   = 22
Number of inequality constraint Jacobian evaluations = 0
Number of Lagrangian Hessian evaluations             = 21
Total CPU secs in IPOPT (w/o function evaluations)   =      0.035
Total CPU secs in NLP function evaluations           =      0.811

EXIT: Optimal Solution Found.
